NAME MasterProb
ROWS
 N  OBJ
 G  c0      
 G  c1      
 G  c2      
 G  c3      
 G  c4      
 G  c5      
 G  c6      
 G  c7      
 G  c8      
 G  c9      
 G  c10     
 G  c11     
 G  c12     
 G  c13     
 G  c14     
 G  c15     
 G  c16     
 G  c17     
 G  c18     
 G  c19     
 G  c20     
 G  c21     
 G  c22     
 G  c23     
 G  c24     
 G  c25     
 G  c26     
 G  c27     
 G  c28     
 G  c29     
 G  c30     
 G  c31     
 G  c32     
 G  c33     
 G  c34     
 G  c35     
 G  c36     
 G  c37     
 G  c38     
 G  c39     
 G  c40     
 G  c41     
 G  c42     
 G  c43     
 G  c44     
 G  c45     
 G  c46     
 G  c47     
 G  c48     
 G  c49     
 G  c50     
 G  c51     
 G  c52     
 G  c53     
 G  c54     
 G  c55     
 G  c56     
 G  c57     
 G  c58     
 G  c59     
 G  c60     
 G  c61     
 G  c62     
 G  c63     
 G  c64     
 G  c65     
 G  c66     
 G  c67     
 G  c68     
 G  c69     
 G  c70     
 G  c71     
 G  c72     
 G  c73     
 G  c74     
 G  c75     
 G  c76     
 G  c77     
 G  c78     
 G  c79     
 G  c80     
 G  c81     
 G  c82     
 G  c83     
 G  c84     
 G  c85     
 G  c86     
 G  c87     
 G  c88     
 G  c89     
 G  c90     
 G  c91     
 G  c92     
 G  c93     
 G  c94     
 G  c95     
 G  c96     
 G  c97     
 G  c98     
 G  c99     
 G  c100    
 G  c101    
 G  c102    
 G  c103    
 G  c104    
 G  c105    
 G  c106    
 G  c107    
 G  c108    
 G  c109    
 G  c110    
 G  c111    
 G  c112    
 G  c113    
 G  c114    
 G  c115    
 G  c116    
 G  c117    
 G  c118    
 G  c119    
 G  c120    
 G  c121    
 G  c122    
 G  c123    
 G  c124    
 G  c125    
 G  c126    
 G  c127    
 G  c128    
 G  c129    
 G  c130    
 G  c131    
 G  c132    
 G  c133    
 G  c134    
 G  c135    
 G  c136    
 G  c137    
 G  c138    
 G  c139    
 G  c140    
 G  c141    
 G  c142    
 G  c143    
COLUMNS
    MARKER    'MARKER'                 'INTORG'
    X[1,1,1]  OBJ       1.9963863917655661e+02
    X[1,1,1]  c0        -169.12
    X[1,1,1]  c2        -1
    X[1,1,1]  c8        1
    X[1,1,1]  c14       -1
    X[1,1,1]  c74       1
    X[1,1,2]  OBJ       3.6754663371577976e+03
    X[1,1,2]  c0        -3.1136000000000004e+03
    X[1,1,2]  c3        -1
    X[1,1,2]  c9        1
    X[1,1,2]  c15       -1
    X[1,1,2]  c75       1
    X[1,1,3]  OBJ       5.2884407728889175e+02
    X[1,1,3]  c0        -4.4800000000000006e+02
    X[1,1,3]  c4        -1
    X[1,1,3]  c10       1
    X[1,1,3]  c16       -1
    X[1,1,3]  c76       1
    X[1,2,1]  OBJ       1.9963863917655661e+02
    X[1,2,1]  c0        -169.12
    X[1,2,1]  c2        -1
    X[1,2,1]  c8        1
    X[1,2,1]  c17       -1
    X[1,2,1]  c77       1
    X[1,2,2]  OBJ       3.6754663371577976e+03
    X[1,2,2]  c0        -3.1136000000000004e+03
    X[1,2,2]  c3        -1
    X[1,2,2]  c9        1
    X[1,2,2]  c18       -1
    X[1,2,2]  c78       1
    X[1,2,3]  OBJ       5.2884407728889175e+02
    X[1,2,3]  c0        -4.4800000000000006e+02
    X[1,2,3]  c4        -1
    X[1,2,3]  c10       1
    X[1,2,3]  c19       -1
    X[1,2,3]  c79       1
    X[1,3,1]  OBJ       1.9963863917655661e+02
    X[1,3,1]  c0        -169.12
    X[1,3,1]  c2        -1
    X[1,3,1]  c8        1
    X[1,3,1]  c20       -1
    X[1,3,1]  c80       1
    X[1,3,2]  OBJ       3.6754663371577976e+03
    X[1,3,2]  c0        -3.1136000000000004e+03
    X[1,3,2]  c3        -1
    X[1,3,2]  c9        1
    X[1,3,2]  c21       -1
    X[1,3,2]  c81       1
    X[1,3,3]  OBJ       5.2884407728889175e+02
    X[1,3,3]  c0        -4.4800000000000006e+02
    X[1,3,3]  c4        -1
    X[1,3,3]  c10       1
    X[1,3,3]  c22       -1
    X[1,3,3]  c82       1
    X[1,4,1]  OBJ       1.9963863917655661e+02
    X[1,4,1]  c0        -169.12
    X[1,4,1]  c2        -1
    X[1,4,1]  c8        1
    X[1,4,1]  c23       -1
    X[1,4,1]  c83       1
    X[1,4,2]  OBJ       3.6754663371577976e+03
    X[1,4,2]  c0        -3.1136000000000004e+03
    X[1,4,2]  c3        -1
    X[1,4,2]  c9        1
    X[1,4,2]  c24       -1
    X[1,4,2]  c84       1
    X[1,4,3]  OBJ       5.2884407728889175e+02
    X[1,4,3]  c0        -4.4800000000000006e+02
    X[1,4,3]  c4        -1
    X[1,4,3]  c10       1
    X[1,4,3]  c25       -1
    X[1,4,3]  c85       1
    X[1,5,1]  OBJ       1.9963863917655661e+02
    X[1,5,1]  c0        -169.12
    X[1,5,1]  c2        -1
    X[1,5,1]  c8        1
    X[1,5,1]  c26       -1
    X[1,5,1]  c86       1
    X[1,5,2]  OBJ       3.6754663371577976e+03
    X[1,5,2]  c0        -3.1136000000000004e+03
    X[1,5,2]  c3        -1
    X[1,5,2]  c9        1
    X[1,5,2]  c27       -1
    X[1,5,2]  c87       1
    X[1,5,3]  OBJ       5.2884407728889175e+02
    X[1,5,3]  c0        -4.4800000000000006e+02
    X[1,5,3]  c4        -1
    X[1,5,3]  c10       1
    X[1,5,3]  c28       -1
    X[1,5,3]  c88       1
    X[1,6,1]  OBJ       1.9963863917655661e+02
    X[1,6,1]  c0        -169.12
    X[1,6,1]  c2        -1
    X[1,6,1]  c8        1
    X[1,6,1]  c29       -1
    X[1,6,1]  c89       1
    X[1,6,2]  OBJ       3.6754663371577976e+03
    X[1,6,2]  c0        -3.1136000000000004e+03
    X[1,6,2]  c3        -1
    X[1,6,2]  c9        1
    X[1,6,2]  c30       -1
    X[1,6,2]  c90       1
    X[1,6,3]  OBJ       5.2884407728889175e+02
    X[1,6,3]  c0        -4.4800000000000006e+02
    X[1,6,3]  c4        -1
    X[1,6,3]  c10       1
    X[1,6,3]  c31       -1
    X[1,6,3]  c91       1
    X[1,7,1]  OBJ       1.9963863917655661e+02
    X[1,7,1]  c0        -169.12
    X[1,7,1]  c2        -1
    X[1,7,1]  c8        1
    X[1,7,1]  c32       -1
    X[1,7,1]  c92       1
    X[1,7,2]  OBJ       3.6754663371577976e+03
    X[1,7,2]  c0        -3.1136000000000004e+03
    X[1,7,2]  c3        -1
    X[1,7,2]  c9        1
    X[1,7,2]  c33       -1
    X[1,7,2]  c93       1
    X[1,7,3]  OBJ       5.2884407728889175e+02
    X[1,7,3]  c0        -4.4800000000000006e+02
    X[1,7,3]  c4        -1
    X[1,7,3]  c10       1
    X[1,7,3]  c34       -1
    X[1,7,3]  c94       1
    X[1,8,1]  OBJ       1.9963863917655661e+02
    X[1,8,1]  c0        -169.12
    X[1,8,1]  c2        -1
    X[1,8,1]  c8        1
    X[1,8,1]  c35       -1
    X[1,8,1]  c95       1
    X[1,8,2]  OBJ       3.6754663371577976e+03
    X[1,8,2]  c0        -3.1136000000000004e+03
    X[1,8,2]  c3        -1
    X[1,8,2]  c9        1
    X[1,8,2]  c36       -1
    X[1,8,2]  c96       1
    X[1,8,3]  OBJ       5.2884407728889175e+02
    X[1,8,3]  c0        -4.4800000000000006e+02
    X[1,8,3]  c4        -1
    X[1,8,3]  c10       1
    X[1,8,3]  c37       -1
    X[1,8,3]  c97       1
    X[1,9,1]  OBJ       1.9963863917655661e+02
    X[1,9,1]  c0        -169.12
    X[1,9,1]  c2        -1
    X[1,9,1]  c8        1
    X[1,9,1]  c38       -1
    X[1,9,1]  c98       1
    X[1,9,2]  OBJ       3.6754663371577976e+03
    X[1,9,2]  c0        -3.1136000000000004e+03
    X[1,9,2]  c3        -1
    X[1,9,2]  c9        1
    X[1,9,2]  c39       -1
    X[1,9,2]  c99       1
    X[1,9,3]  OBJ       5.2884407728889175e+02
    X[1,9,3]  c0        -4.4800000000000006e+02
    X[1,9,3]  c4        -1
    X[1,9,3]  c10       1
    X[1,9,3]  c40       -1
    X[1,9,3]  c100      1
    X[1,10,1]  OBJ       1.9963863917655661e+02
    X[1,10,1]  c0        -169.12
    X[1,10,1]  c2        -1
    X[1,10,1]  c8        1
    X[1,10,1]  c41       -1
    X[1,10,1]  c101      1
    X[1,10,2]  OBJ       3.6754663371577976e+03
    X[1,10,2]  c0        -3.1136000000000004e+03
    X[1,10,2]  c3        -1
    X[1,10,2]  c9        1
    X[1,10,2]  c42       -1
    X[1,10,2]  c102      1
    X[1,10,3]  OBJ       5.2884407728889175e+02
    X[1,10,3]  c0        -4.4800000000000006e+02
    X[1,10,3]  c4        -1
    X[1,10,3]  c10       1
    X[1,10,3]  c43       -1
    X[1,10,3]  c103      1
    X[2,1,1]  OBJ       1.9963863917655661e+02
    X[2,1,1]  c1        -169.12
    X[2,1,1]  c5        -1
    X[2,1,1]  c11       1
    X[2,1,1]  c44       -1
    X[2,1,1]  c104      1
    X[2,1,2]  OBJ       3.6754663371577976e+03
    X[2,1,2]  c1        -3.1136000000000004e+03
    X[2,1,2]  c6        -1
    X[2,1,2]  c12       1
    X[2,1,2]  c45       -1
    X[2,1,2]  c105      1
    X[2,1,3]  OBJ       5.2884407728889175e+02
    X[2,1,3]  c1        -4.4800000000000006e+02
    X[2,1,3]  c7        -1
    X[2,1,3]  c13       1
    X[2,1,3]  c46       -1
    X[2,1,3]  c106      1
    X[2,2,1]  OBJ       1.9963863917655661e+02
    X[2,2,1]  c1        -169.12
    X[2,2,1]  c5        -1
    X[2,2,1]  c11       1
    X[2,2,1]  c47       -1
    X[2,2,1]  c107      1
    X[2,2,2]  OBJ       3.6754663371577976e+03
    X[2,2,2]  c1        -3.1136000000000004e+03
    X[2,2,2]  c6        -1
    X[2,2,2]  c12       1
    X[2,2,2]  c48       -1
    X[2,2,2]  c108      1
    X[2,2,3]  OBJ       5.2884407728889175e+02
    X[2,2,3]  c1        -4.4800000000000006e+02
    X[2,2,3]  c7        -1
    X[2,2,3]  c13       1
    X[2,2,3]  c49       -1
    X[2,2,3]  c109      1
    X[2,3,1]  OBJ       1.9963863917655661e+02
    X[2,3,1]  c1        -169.12
    X[2,3,1]  c5        -1
    X[2,3,1]  c11       1
    X[2,3,1]  c50       -1
    X[2,3,1]  c110      1
    X[2,3,2]  OBJ       3.6754663371577976e+03
    X[2,3,2]  c1        -3.1136000000000004e+03
    X[2,3,2]  c6        -1
    X[2,3,2]  c12       1
    X[2,3,2]  c51       -1
    X[2,3,2]  c111      1
    X[2,3,3]  OBJ       5.2884407728889175e+02
    X[2,3,3]  c1        -4.4800000000000006e+02
    X[2,3,3]  c7        -1
    X[2,3,3]  c13       1
    X[2,3,3]  c52       -1
    X[2,3,3]  c112      1
    X[2,4,1]  OBJ       1.9963863917655661e+02
    X[2,4,1]  c1        -169.12
    X[2,4,1]  c5        -1
    X[2,4,1]  c11       1
    X[2,4,1]  c53       -1
    X[2,4,1]  c113      1
    X[2,4,2]  OBJ       3.6754663371577976e+03
    X[2,4,2]  c1        -3.1136000000000004e+03
    X[2,4,2]  c6        -1
    X[2,4,2]  c12       1
    X[2,4,2]  c54       -1
    X[2,4,2]  c114      1
    X[2,4,3]  OBJ       5.2884407728889175e+02
    X[2,4,3]  c1        -4.4800000000000006e+02
    X[2,4,3]  c7        -1
    X[2,4,3]  c13       1
    X[2,4,3]  c55       -1
    X[2,4,3]  c115      1
    X[2,5,1]  OBJ       1.9963863917655661e+02
    X[2,5,1]  c1        -169.12
    X[2,5,1]  c5        -1
    X[2,5,1]  c11       1
    X[2,5,1]  c56       -1
    X[2,5,1]  c116      1
    X[2,5,2]  OBJ       3.6754663371577976e+03
    X[2,5,2]  c1        -3.1136000000000004e+03
    X[2,5,2]  c6        -1
    X[2,5,2]  c12       1
    X[2,5,2]  c57       -1
    X[2,5,2]  c117      1
    X[2,5,3]  OBJ       5.2884407728889175e+02
    X[2,5,3]  c1        -4.4800000000000006e+02
    X[2,5,3]  c7        -1
    X[2,5,3]  c13       1
    X[2,5,3]  c58       -1
    X[2,5,3]  c118      1
    X[2,6,1]  OBJ       1.9963863917655661e+02
    X[2,6,1]  c1        -169.12
    X[2,6,1]  c5        -1
    X[2,6,1]  c11       1
    X[2,6,1]  c59       -1
    X[2,6,1]  c119      1
    X[2,6,2]  OBJ       3.6754663371577976e+03
    X[2,6,2]  c1        -3.1136000000000004e+03
    X[2,6,2]  c6        -1
    X[2,6,2]  c12       1
    X[2,6,2]  c60       -1
    X[2,6,2]  c120      1
    X[2,6,3]  OBJ       5.2884407728889175e+02
    X[2,6,3]  c1        -4.4800000000000006e+02
    X[2,6,3]  c7        -1
    X[2,6,3]  c13       1
    X[2,6,3]  c61       -1
    X[2,6,3]  c121      1
    X[2,7,1]  OBJ       1.9963863917655661e+02
    X[2,7,1]  c1        -169.12
    X[2,7,1]  c5        -1
    X[2,7,1]  c11       1
    X[2,7,1]  c62       -1
    X[2,7,1]  c122      1
    X[2,7,2]  OBJ       3.6754663371577976e+03
    X[2,7,2]  c1        -3.1136000000000004e+03
    X[2,7,2]  c6        -1
    X[2,7,2]  c12       1
    X[2,7,2]  c63       -1
    X[2,7,2]  c123      1
    X[2,7,3]  OBJ       5.2884407728889175e+02
    X[2,7,3]  c1        -4.4800000000000006e+02
    X[2,7,3]  c7        -1
    X[2,7,3]  c13       1
    X[2,7,3]  c64       -1
    X[2,7,3]  c124      1
    X[2,8,1]  OBJ       1.9963863917655661e+02
    X[2,8,1]  c1        -169.12
    X[2,8,1]  c5        -1
    X[2,8,1]  c11       1
    X[2,8,1]  c65       -1
    X[2,8,1]  c125      1
    X[2,8,2]  OBJ       3.6754663371577976e+03
    X[2,8,2]  c1        -3.1136000000000004e+03
    X[2,8,2]  c6        -1
    X[2,8,2]  c12       1
    X[2,8,2]  c66       -1
    X[2,8,2]  c126      1
    X[2,8,3]  OBJ       5.2884407728889175e+02
    X[2,8,3]  c1        -4.4800000000000006e+02
    X[2,8,3]  c7        -1
    X[2,8,3]  c13       1
    X[2,8,3]  c67       -1
    X[2,8,3]  c127      1
    X[2,9,1]  OBJ       1.9963863917655661e+02
    X[2,9,1]  c1        -169.12
    X[2,9,1]  c5        -1
    X[2,9,1]  c11       1
    X[2,9,1]  c68       -1
    X[2,9,1]  c128      1
    X[2,9,2]  OBJ       3.6754663371577976e+03
    X[2,9,2]  c1        -3.1136000000000004e+03
    X[2,9,2]  c6        -1
    X[2,9,2]  c12       1
    X[2,9,2]  c69       -1
    X[2,9,2]  c129      1
    X[2,9,3]  OBJ       5.2884407728889175e+02
    X[2,9,3]  c1        -4.4800000000000006e+02
    X[2,9,3]  c7        -1
    X[2,9,3]  c13       1
    X[2,9,3]  c70       -1
    X[2,9,3]  c130      1
    X[2,10,1]  OBJ       1.9963863917655661e+02
    X[2,10,1]  c1        -169.12
    X[2,10,1]  c5        -1
    X[2,10,1]  c11       1
    X[2,10,1]  c71       -1
    X[2,10,1]  c131      1
    X[2,10,2]  OBJ       3.6754663371577976e+03
    X[2,10,2]  c1        -3.1136000000000004e+03
    X[2,10,2]  c6        -1
    X[2,10,2]  c12       1
    X[2,10,2]  c72       -1
    X[2,10,2]  c132      1
    X[2,10,3]  OBJ       5.2884407728889175e+02
    X[2,10,3]  c1        -4.4800000000000006e+02
    X[2,10,3]  c7        -1
    X[2,10,3]  c13       1
    X[2,10,3]  c73       -1
    X[2,10,3]  c133      1
    U[1,1]    c0        -2000
    U[1,1]    c1        2000
    U[1,1]    c14       1000
    U[1,1]    c15       1000
    U[1,1]    c16       400
    U[1,1]    c134      -1
    U[1,2]    c0        -2000
    U[1,2]    c1        2000
    U[1,2]    c17       1000
    U[1,2]    c18       1000
    U[1,2]    c19       400
    U[1,2]    c135      -1
    U[1,3]    c0        -2000
    U[1,3]    c1        2000
    U[1,3]    c20       1000
    U[1,3]    c21       1000
    U[1,3]    c22       400
    U[1,3]    c136      -1
    U[1,4]    c0        -2000
    U[1,4]    c1        2000
    U[1,4]    c23       1000
    U[1,4]    c24       1000
    U[1,4]    c25       400
    U[1,4]    c137      -1
    U[1,5]    c0        -2000
    U[1,5]    c1        2000
    U[1,5]    c26       1000
    U[1,5]    c27       1000
    U[1,5]    c28       400
    U[1,5]    c138      -1
    U[1,6]    c0        -2000
    U[1,6]    c1        2000
    U[1,6]    c29       1000
    U[1,6]    c30       1000
    U[1,6]    c31       400
    U[1,6]    c139      -1
    U[1,7]    c0        -2000
    U[1,7]    c1        2000
    U[1,7]    c32       1000
    U[1,7]    c33       1000
    U[1,7]    c34       400
    U[1,7]    c140      -1
    U[1,8]    c0        -2000
    U[1,8]    c1        2000
    U[1,8]    c35       1000
    U[1,8]    c36       1000
    U[1,8]    c37       400
    U[1,8]    c141      -1
    U[1,9]    c0        -2000
    U[1,9]    c1        2000
    U[1,9]    c38       1000
    U[1,9]    c39       1000
    U[1,9]    c40       400
    U[1,9]    c142      -1
    U[1,10]   c0        -2000
    U[1,10]   c1        2000
    U[1,10]   c41       1000
    U[1,10]   c42       1000
    U[1,10]   c43       400
    U[1,10]   c143      -1
    U[2,1]    OBJ       6000
    U[2,1]    c1        -2000
    U[2,1]    c44       500
    U[2,1]    c45       500
    U[2,1]    c46       30
    U[2,1]    c134      1
    U[2,2]    OBJ       6000
    U[2,2]    c1        -2000
    U[2,2]    c47       500
    U[2,2]    c48       500
    U[2,2]    c49       30
    U[2,2]    c135      1
    U[2,3]    OBJ       6000
    U[2,3]    c1        -2000
    U[2,3]    c50       500
    U[2,3]    c51       500
    U[2,3]    c52       30
    U[2,3]    c136      1
    U[2,4]    OBJ       6000
    U[2,4]    c1        -2000
    U[2,4]    c53       500
    U[2,4]    c54       500
    U[2,4]    c55       30
    U[2,4]    c137      1
    U[2,5]    OBJ       6000
    U[2,5]    c1        -2000
    U[2,5]    c56       500
    U[2,5]    c57       500
    U[2,5]    c58       30
    U[2,5]    c138      1
    U[2,6]    OBJ       6000
    U[2,6]    c1        -2000
    U[2,6]    c59       500
    U[2,6]    c60       500
    U[2,6]    c61       30
    U[2,6]    c139      1
    U[2,7]    OBJ       6000
    U[2,7]    c1        -2000
    U[2,7]    c62       500
    U[2,7]    c63       500
    U[2,7]    c64       30
    U[2,7]    c140      1
    U[2,8]    OBJ       6000
    U[2,8]    c1        -2000
    U[2,8]    c65       500
    U[2,8]    c66       500
    U[2,8]    c67       30
    U[2,8]    c141      1
    U[2,9]    OBJ       6000
    U[2,9]    c1        -2000
    U[2,9]    c68       500
    U[2,9]    c69       500
    U[2,9]    c70       30
    U[2,9]    c142      1
    U[2,10]   OBJ       6000
    U[2,10]   c1        -2000
    U[2,10]   c71       500
    U[2,10]   c72       500
    U[2,10]   c73       30
    U[2,10]   c143      1
    MARKER    'MARKER'                 'INTEND'
    eta       OBJ       1
RHS
    RHS1      c0        -1000000
    RHS1      c1        -500000
    RHS1      c2        -1000
    RHS1      c3        -1000
    RHS1      c4        -400
    RHS1      c5        -500
    RHS1      c6        -500
    RHS1      c7        -30
BOUNDS
 LI BND1      X[1,1,1]  0
 LI BND1      X[1,1,2]  0
 LI BND1      X[1,1,3]  0
 LI BND1      X[1,2,1]  0
 LI BND1      X[1,2,2]  0
 LI BND1      X[1,2,3]  0
 LI BND1      X[1,3,1]  0
 LI BND1      X[1,3,2]  0
 LI BND1      X[1,3,3]  0
 LI BND1      X[1,4,1]  0
 LI BND1      X[1,4,2]  0
 LI BND1      X[1,4,3]  0
 LI BND1      X[1,5,1]  0
 LI BND1      X[1,5,2]  0
 LI BND1      X[1,5,3]  0
 LI BND1      X[1,6,1]  0
 LI BND1      X[1,6,2]  0
 LI BND1      X[1,6,3]  0
 LI BND1      X[1,7,1]  0
 LI BND1      X[1,7,2]  0
 LI BND1      X[1,7,3]  0
 LI BND1      X[1,8,1]  0
 LI BND1      X[1,8,2]  0
 LI BND1      X[1,8,3]  0
 LI BND1      X[1,9,1]  0
 LI BND1      X[1,9,2]  0
 LI BND1      X[1,9,3]  0
 LI BND1      X[1,10,1]  0
 LI BND1      X[1,10,2]  0
 LI BND1      X[1,10,3]  0
 LI BND1      X[2,1,1]  0
 LI BND1      X[2,1,2]  0
 LI BND1      X[2,1,3]  0
 LI BND1      X[2,2,1]  0
 LI BND1      X[2,2,2]  0
 LI BND1      X[2,2,3]  0
 LI BND1      X[2,3,1]  0
 LI BND1      X[2,3,2]  0
 LI BND1      X[2,3,3]  0
 LI BND1      X[2,4,1]  0
 LI BND1      X[2,4,2]  0
 LI BND1      X[2,4,3]  0
 LI BND1      X[2,5,1]  0
 LI BND1      X[2,5,2]  0
 LI BND1      X[2,5,3]  0
 LI BND1      X[2,6,1]  0
 LI BND1      X[2,6,2]  0
 LI BND1      X[2,6,3]  0
 LI BND1      X[2,7,1]  0
 LI BND1      X[2,7,2]  0
 LI BND1      X[2,7,3]  0
 LI BND1      X[2,8,1]  0
 LI BND1      X[2,8,2]  0
 LI BND1      X[2,8,3]  0
 LI BND1      X[2,9,1]  0
 LI BND1      X[2,9,2]  0
 LI BND1      X[2,9,3]  0
 LI BND1      X[2,10,1]  0
 LI BND1      X[2,10,2]  0
 LI BND1      X[2,10,3]  0
 BV BND1      U[1,1]  
 BV BND1      U[1,2]  
 BV BND1      U[1,3]  
 BV BND1      U[1,4]  
 BV BND1      U[1,5]  
 BV BND1      U[1,6]  
 BV BND1      U[1,7]  
 BV BND1      U[1,8]  
 BV BND1      U[1,9]  
 BV BND1      U[1,10] 
 BV BND1      U[2,1]  
 BV BND1      U[2,2]  
 BV BND1      U[2,3]  
 BV BND1      U[2,4]  
 BV BND1      U[2,5]  
 BV BND1      U[2,6]  
 BV BND1      U[2,7]  
 BV BND1      U[2,8]  
 BV BND1      U[2,9]  
 BV BND1      U[2,10] 
 LO BND1      eta       -10000000
ENDATA
